
******************************************************************************
This program contains Ipopt, a library for large-scale nonlinear optimization.
 Ipopt is released as open source code under the Eclipse Public License (EPL).
         For more information visit http://projects.coin-or.org/Ipopt
******************************************************************************

This is Ipopt version 3.12.6, running with linear solver ma57.

Number of nonzeros in equality constraint Jacobian...:    50341
Number of nonzeros in inequality constraint Jacobian.:        0
Number of nonzeros in Lagrangian Hessian.............:    79599

Total number of variables............................:     3969
                     variables with only lower bounds:        0
                variables with lower and upper bounds:        0
                     variables with only upper bounds:        0
Total number of equality constraints.................:     3969
Total number of inequality constraints...............:        0
        inequality constraints with only lower bounds:        0
   inequality constraints with lower and upper bounds:        0
        inequality constraints with only upper bounds:        0

iter    objective    inf_pr   inf_du lg(mu)  ||d||  lg(rg) alpha_du alpha_pr  ls
   0  0.0000000e+00 3.85e-02 0.00e+00  -1.0 0.00e+00    -  0.00e+00 0.00e+00   0
Reallocating memory for MA57: lfact (3106342)
Reallocating memory for MA57: lfact (4383802)
Reallocating memory for MA57: lfact (5055897)
   1  0.0000000e+00 1.36e-01 2.13e-13  -2.5 5.21e-02    -  1.00e+00 5.00e-01h  2
   2  0.0000000e+00 1.34e-01 3.51e-12  -2.5 7.56e-01    -  1.00e+00 1.56e-02h  7
   3  0.0000000e+00 1.32e-01 3.16e-12  -2.5 4.41e-01    -  1.00e+00 1.56e-02h  7
   4  0.0000000e+00 1.31e-01 4.19e-12  -2.5 1.00e+00    -  1.00e+00 3.91e-03h  9
   5  0.0000000e+00 1.31e-01 3.79e-12  -2.5 6.04e-01    -  1.00e+00 3.91e-03h  9
   6  0.0000000e+00 1.31e-01 3.84e-12  -2.5 1.21e+00    -  1.00e+00 9.77e-04h 11
   7  0.0000000e+00 1.31e-01 3.87e-12  -2.5 2.84e+00    -  1.00e+00 1.22e-04h 14
   8  0.0000000e+00 1.31e-01 3.89e-12  -2.5 5.28e+00    -  1.00e+00 3.05e-05h 16
   9r 0.0000000e+00 1.31e-01 9.99e+02  -0.9 0.00e+00    -  0.00e+00 4.77e-07R 22
iter    objective    inf_pr   inf_du lg(mu)  ||d||  lg(rg) alpha_du alpha_pr  ls
  10r 0.0000000e+00 7.14e-02 9.99e+02  -0.9 1.35e+02    -  4.56e-02 9.60e-04f  1
  11r 0.0000000e+00 7.57e-02 9.97e+02  -0.9 6.81e+00    -  8.88e-03 1.81e-03f  1
  12r 0.0000000e+00 8.22e-01 9.43e+02  -0.9 5.61e+00    -  1.28e-02 5.46e-02f  1
  13r 0.0000000e+00 4.15e+00 6.87e+03  -0.9 4.85e+00   2.0 7.31e-03 1.27e-02f  1
  14r 0.0000000e+00 3.92e+00 6.48e+03  -0.9 1.09e-01   3.3 2.33e-01 5.54e-02f  1
  15r 0.0000000e+00 3.73e+00 6.10e+03  -0.9 1.12e-01   3.8 6.68e-03 5.07e-02h  1
  16r 0.0000000e+00 3.43e+00 1.37e+04  -0.9 1.87e-01   3.3 4.96e-02 8.32e-02h  1
  17r 0.0000000e+00 3.37e+00 1.34e+04  -0.9 8.09e-02   4.6 2.54e-02 1.87e-02h  1
  18r 0.0000000e+00 3.29e+00 1.31e+04  -0.9 1.09e-01   4.1 5.54e-02 2.33e-02h  1
  19r 0.0000000e+00 3.01e+00 1.20e+04  -0.9 9.65e-02   4.6 2.33e-02 8.82e-02h  1
iter    objective    inf_pr   inf_du lg(mu)  ||d||  lg(rg) alpha_du alpha_pr  ls
  20r 0.0000000e+00 2.76e+00 1.10e+04  -0.9 8.47e-02   4.1 8.72e-02 8.31e-02h  1
  21r 0.0000000e+00 2.22e+00 1.12e+04  -0.9 7.93e-02   4.5 6.01e-02 2.04e-01h  1
  22r 0.0000000e+00 2.00e+00 1.01e+04  -0.9 8.72e-02   4.9 1.89e-02 1.00e-01h  1
  23r 0.0000000e+00 2.00e+00 1.01e+04  -0.9 1.63e+00   4.5 2.02e-03 1.93e-03h  1
  24r 0.0000000e+00 1.84e+00 9.30e+03  -0.9 7.80e-02   4.9 5.06e-02 8.08e-02h  1
  25r 0.0000000e+00 1.69e+00 9.24e+03  -0.9 6.02e-02   5.3 5.25e-02 8.37e-02h  1
  26r 0.0000000e+00 1.67e+00 9.16e+03  -0.9 3.24e-01   4.8 3.41e-03 1.34e-02h  1
  27r 0.0000000e+00 1.54e+00 9.20e+03  -0.9 5.39e-02   5.3 5.68e-02 7.74e-02h  1
  28r 0.0000000e+00 1.43e+00 1.03e+04  -0.9 4.94e-02   5.7 6.49e-02 7.68e-02h  1
  29r 0.0000000e+00 1.40e+00 1.03e+04  -0.9 1.08e-01   5.2 2.43e-02 1.62e-02h  1
iter    objective    inf_pr   inf_du lg(mu)  ||d||  lg(rg) alpha_du alpha_pr  ls
  30r 0.0000000e+00 1.25e+00 1.27e+04  -0.9 4.79e-02   5.6 5.16e-02 1.09e-01h  1
  31r 0.0000000e+00 1.23e+00 1.26e+04  -0.9 9.95e-02   5.2 1.34e-02 1.81e-02h  1
  32r 0.0000000e+00 1.14e+00 1.19e+04  -0.9 3.96e-02   5.6 6.48e-02 7.99e-02h  1
  33r 0.0000000e+00 1.10e+00 1.13e+04  -0.9 9.82e-02   5.1 2.02e-02 3.39e-02h  1
  34r 0.0000000e+00 9.97e-01 1.02e+04  -0.9 3.47e-02   5.5 8.65e-02 9.23e-02h  1
  35r 0.0000000e+00 8.78e-01 1.22e+04  -0.9 3.16e-02   6.0 4.41e-02 1.22e-01h  1
  36r 0.0000000e+00 8.53e-01 1.21e+04  -0.9 5.20e-02   5.5 2.30e-02 2.93e-02h  1
  37r 0.0000000e+00 8.15e-01 1.23e+04  -0.9 2.78e-02   5.9 1.16e-01 4.47e-02h  1
  38r 0.0000000e+00 8.00e-01 1.25e+04  -0.9 1.33e-01   5.4 4.44e-03 1.89e-02h  1
  39r 0.0000000e+00 7.81e-01 1.24e+04  -0.9 2.57e-02   5.9 1.07e-01 2.42e-02h  1
iter    objective    inf_pr   inf_du lg(mu)  ||d||  lg(rg) alpha_du alpha_pr  ls
  40r 0.0000000e+00 7.29e-01 1.38e+04  -0.9 2.56e-02   6.3 7.77e-02 6.72e-02h  1
  41r 0.0000000e+00 6.65e-01 1.33e+04  -0.9 2.32e-02   5.8 8.31e-02 8.95e-02h  1
  42r 0.0000000e+00 6.40e-01 1.42e+04  -0.9 2.21e-02   6.2 1.26e-01 3.87e-02h  1
  43r 0.0000000e+00 4.67e-01 3.11e+04  -0.9 2.02e-02   5.7 4.18e-02 2.84e-01h  1
  44r 0.0000000e+00 4.39e-01 2.83e+04  -0.9 2.24e-02   6.2 1.29e-01 5.96e-02h  1
  45r 0.0000000e+00 3.75e-01 2.30e+04  -0.9 1.63e-02   6.6 5.36e-02 1.50e-01h  1
  46r 0.0000000e+00 3.38e-01 2.25e+04  -0.9 1.69e-02   6.1 1.03e-01 1.01e-01h  1
  47r 0.0000000e+00 3.30e-01 2.23e+04  -0.9 2.42e-02   5.6 7.04e-02 2.38e-02h  1
  48r 0.0000000e+00 2.61e-01 3.22e+04  -0.9 1.65e-02   6.1 4.80e-02 2.27e-01h  1
  49r 0.0000000e+00 2.53e-01 3.06e+04  -0.9 2.86e-02   5.6 1.13e-01 4.81e-02h  1
iter    objective    inf_pr   inf_du lg(mu)  ||d||  lg(rg) alpha_du alpha_pr  ls
  50r 0.0000000e+00 2.38e-01 2.46e+04  -0.9 1.51e-02   6.0 2.31e-01 2.10e-01h  1
  51r 0.0000000e+00 2.04e-01 1.72e+04  -0.9 8.44e-03   6.4 1.93e-01 2.18e-01h  1
  52r 0.0000000e+00 1.44e-01 1.72e+04  -0.9 7.60e-03   6.0 2.88e-01 4.56e-01h  1
  53r 0.0000000e+00 1.32e-01 1.56e+04  -0.9 1.68e-02   5.5 1.62e-01 9.53e-02f  1
  54r 0.0000000e+00 1.01e-01 1.14e+04  -0.9 5.00e-03   5.9 6.20e-01 2.68e-01f  1
  55r 0.0000000e+00 8.79e-02 9.03e+03  -0.9 8.33e-03   5.4 7.50e-01 2.39e-01f  1
  56r 0.0000000e+00 8.74e-02 7.03e+03  -0.9 2.78e-03   5.9 1.00e+00 6.41e-01f  1
  57r 0.0000000e+00 8.70e-02 5.60e+03  -0.9 4.16e-03   5.4 7.48e-01 3.69e-01f  1
  58r 0.0000000e+00 8.67e-02 3.36e+03  -0.9 1.90e-03   5.8 1.00e+00 6.08e-01f  1
  59r 0.0000000e+00 8.64e-02 2.63e+03  -0.9 4.34e-03   5.3 5.69e-01 3.48e-01f  1
iter    objective    inf_pr   inf_du lg(mu)  ||d||  lg(rg) alpha_du alpha_pr  ls
  60r 0.0000000e+00 8.61e-02 1.59e+03  -0.9 1.71e-03   5.8 1.00e+00 6.65e-01f  1
  61r 0.0000000e+00 8.58e-02 1.30e+03  -0.9 7.17e-03   5.3 5.34e-01 3.75e-01f  1
  62r 0.0000000e+00 8.55e-02 1.04e+03  -0.9 2.06e-03   5.7 1.00e+00 5.33e-01f  1
  63r 0.0000000e+00 8.54e-02 9.98e+02  -0.9 7.23e-04   6.1 1.00e+00 1.00e+00f  1
  64r 0.0000000e+00 8.52e-02 1.10e+03  -0.9 2.74e-03   5.7 1.00e+00 5.62e-01f  1
  65r 0.0000000e+00 8.50e-02 1.03e+03  -0.9 8.41e-04   6.1 1.00e+00 1.00e+00f  1
  66r 0.0000000e+00 8.48e-02 1.38e+03  -0.9 3.47e-03   5.6 1.00e+00 5.79e-01f  1
  67r 0.0000000e+00 8.48e-02 4.65e+03  -0.9 1.16e-01   5.1 2.75e-02 3.09e-02f  1
  68r 0.0000000e+00 8.47e-02 3.60e+03  -0.9 2.88e-03   5.6 1.00e+00 2.13e-01f  1
  69r 0.0000000e+00 8.46e-02 3.38e+03  -0.9 1.30e-02   5.1 4.63e-01 2.41e-01f  1
iter    objective    inf_pr   inf_du lg(mu)  ||d||  lg(rg) alpha_du alpha_pr  ls
  70r 0.0000000e+00 8.44e-02 1.99e+03  -0.9 3.45e-03   5.5 1.00e+00 5.58e-01f  1
  71r 0.0000000e+00 8.43e-02 1.67e+03  -0.9 1.71e-02   5.0 3.16e-01 1.71e-01f  1
  72r 0.0000000e+00 8.42e-02 1.12e+03  -0.9 4.13e-03   5.5 1.00e+00 3.95e-01f  1
  73r 0.0000000e+00 8.41e-02 9.98e+02  -0.9 1.97e-02   5.0 1.36e-01 1.60e-01f  1
  74r 0.0000000e+00 8.40e-02 9.24e+02  -0.9 3.37e-03   5.4 1.00e+00 4.68e-01f  1
  75r 0.0000000e+00 8.38e-02 2.50e+03  -0.9 1.72e-02   4.9 1.78e-01 3.24e-01f  1
  76r 0.0000000e+00 8.37e-02 2.27e+03  -0.9 5.13e-03   5.4 9.23e-01 2.30e-01f  1
  77r 0.0000000e+00 8.36e-02 9.87e+02  -0.9 1.67e-03   5.8 1.00e+00 8.94e-01f  1
  78r 0.0000000e+00 8.36e-02 9.24e+02  -0.9 4.77e-03   5.3 1.00e+00 3.18e-01f  1
  79r 0.0000000e+00 8.35e-02 1.07e+03  -0.9 2.08e-02   4.8 2.68e-01 1.65e-01f  1
iter    objective    inf_pr   inf_du lg(mu)  ||d||  lg(rg) alpha_du alpha_pr  ls
  80r 0.0000000e+00 8.34e-02 9.31e+02  -0.9 5.52e-03   5.3 1.00e+00 2.38e-01f  1
  81r 0.0000000e+00 8.33e-02 8.54e+02  -0.9 1.58e-02   4.8 7.02e-01 2.30e-01f  1
  82r 0.0000000e+00 8.32e-02 7.50e+02  -0.9 5.30e-03   5.2 1.00e+00 3.04e-01f  1
  83r 0.0000000e+00 8.31e-02 5.17e+02  -0.9 1.27e-02   4.7 5.98e-01 2.10e-01f  1
  84r 0.0000000e+00 8.30e-02 5.27e+02  -0.9 4.87e-03   5.2 1.00e+00 5.16e-01f  1
  85r 0.0000000e+00 8.29e-02 5.42e+02  -0.9 2.15e-02   4.7 4.12e-01 1.24e-01f  1
  86r 0.0000000e+00 8.28e-02 5.47e+02  -0.9 6.49e-03   5.1 1.00e+00 5.43e-01f  1
  87r 0.0000000e+00 8.27e-02 6.01e+02  -0.9 1.44e-02   4.6 6.51e-01 9.52e-02f  1
  88r 0.0000000e+00 8.24e-02 5.71e+02  -0.9 4.76e-03   5.0 1.00e+00 1.00e+00f  1
  89r 0.0000000e+00 8.23e-02 6.72e+02  -0.9 1.39e-02   4.6 4.63e-01 2.70e-01f  1
iter    objective    inf_pr   inf_du lg(mu)  ||d||  lg(rg) alpha_du alpha_pr  ls
  90r 0.0000000e+00 8.20e-02 7.57e+02  -0.9 3.26e-03   5.0 1.00e+00 1.00e+00f  1
  91r 0.0000000e+00 8.17e-02 1.61e+03  -0.9 1.21e-02   4.5 5.06e-01 3.84e-01f  1
  92r 0.0000000e+00 8.16e-02 8.00e+02  -0.9 3.77e-03   4.9 1.00e+00 6.63e-01f  1
  93r 0.0000000e+00 8.13e-02 1.12e+03  -0.9 1.60e-02   4.5 5.39e-01 3.70e-01f  1
  94r 0.0000000e+00 8.12e-02 6.92e+02  -0.9 5.99e-03   4.9 1.00e+00 8.02e-01f  1
  95r 0.0000000e+00 8.12e-02 6.40e+02  -0.9 3.68e-02   4.4 6.42e-01 9.73e-02f  1
  96r 0.0000000e+00 8.10e-02 6.95e+02  -0.9 6.10e-03   4.8 1.00e+00 9.94e-01f  1
  97r 0.0000000e+00 8.09e-02 6.87e+02  -0.9 1.45e-02   4.4 4.12e-01 3.33e-01f  1
  98r 0.0000000e+00 8.09e-02 4.59e+02  -0.9 5.26e-03   4.8 1.00e+00 7.57e-01f  1
  99r 0.0000000e+00 8.08e-02 4.33e+03  -0.9 3.56e-02   4.3 3.56e-01 1.89e-01f  1
iter    objective    inf_pr   inf_du lg(mu)  ||d||  lg(rg) alpha_du alpha_pr  ls
 100r 0.0000000e+00 8.09e-02 2.19e+03  -0.9 5.50e-03   4.7 1.00e+00 4.75e-01f  1
 101r 0.0000000e+00 8.09e-02 2.09e+03  -0.9 4.10e-02   4.3 4.26e-02 4.25e-02f  1
 102r 0.0000000e+00 8.10e-02 1.32e+03  -0.9 7.04e-03   4.7 1.00e+00 3.85e-01f  1
 103r 0.0000000e+00 8.11e-02 3.34e+02  -0.9 2.55e-03   5.1 1.00e+00 1.00e+00f  1
 104r 0.0000000e+00 8.13e-02 3.46e+02  -0.9 8.28e-03   4.6 1.00e+00 7.36e-01f  1
 105r 0.0000000e+00 8.19e-02 3.99e+02  -0.9 2.88e-02   4.2 3.37e-01 2.22e-01f  1
 106r 0.0000000e+00 8.20e-02 3.36e+02  -0.9 9.45e-03   4.6 1.00e+00 4.29e-01f  1
 107r 0.0000000e+00 8.22e-02 3.54e+02  -0.9 3.42e-03   5.0 1.00e+00 1.00e+00f  1
 108r 0.0000000e+00 9.33e-02 8.32e+03  -0.9 5.66e-02   4.5 1.27e-01 1.60e-01f  1
 109r 0.0000000e+00 7.62e-02 3.57e+03  -0.9 3.87e-03   5.0 1.00e+00 6.05e-01f  1
iter    objective    inf_pr   inf_du lg(mu)  ||d||  lg(rg) alpha_du alpha_pr  ls
 110r 0.0000000e+00 6.39e-02 1.85e+03  -0.9 2.48e-02   4.5 5.97e-01 4.71e-01f  1
 111r 0.0000000e+00 7.49e-02 7.40e+02  -0.9 1.13e-03   5.8 1.00e+00 1.00e+00f  1
 112r 0.0000000e+00 7.48e-02 6.56e+02  -0.9 3.01e-03   5.3 1.00e+00 1.00e+00f  1
 113r 0.0000000e+00 7.39e-02 1.67e+03  -0.9 1.78e-02   4.9 1.00e+00 5.26e-01f  1
 114r 0.0000000e+00 7.37e-02 1.57e+03  -0.9 5.98e-02   4.4 4.25e-01 6.06e-02f  1
 115r 0.0000000e+00 7.32e-02 1.13e+03  -0.9 1.27e-02   4.8 1.00e+00 2.81e-01f  1
 116r 0.0000000e+00 7.26e-02 9.02e+02  -0.9 1.71e-02   4.3 3.60e-01 1.99e-01f  1
 117r 0.0000000e+00 7.09e-02 4.50e+02  -0.9 6.13e-03   4.8 1.00e+00 1.00e+00f  1
 118r 0.0000000e+00 7.01e-02 3.61e+02  -0.9 2.36e-03   5.2 1.00e+00 1.00e+00f  1
 119r 0.0000000e+00 6.80e-02 4.92e+02  -0.9 7.41e-03   4.7 1.00e+00 9.57e-01f  1
iter    objective    inf_pr   inf_du lg(mu)  ||d||  lg(rg) alpha_du alpha_pr  ls
 120r 0.0000000e+00 6.67e-02 5.49e+02  -0.9 2.67e-02   4.2 2.96e-01 1.72e-01f  1
 121r 0.0000000e+00 6.52e-02 4.12e+02  -0.9 8.96e-03   4.7 1.00e+00 5.17e-01f  1
 122r 0.0000000e+00 6.28e-02 7.06e+02  -0.9 2.91e-02   4.2 5.55e-01 2.39e-01f  1
 123r 0.0000000e+00 6.13e-02 5.67e+02  -0.9 1.03e-02   4.6 1.00e+00 4.19e-01f  1
 124r 0.0000000e+00 6.08e-02 8.33e+02  -0.9 3.19e-02   4.1 5.78e-01 3.74e-01f  1
 125r 0.0000000e+00 6.10e-02 5.22e+02  -0.9 7.29e-03   4.6 1.00e+00 3.95e-01f  1
 126r 0.0000000e+00 6.12e-02 6.71e+02  -0.9 2.72e-02   4.1 6.92e-01 1.93e-01f  1
 127r 0.0000000e+00 6.16e-02 8.97e+02  -0.9 7.34e-03   4.5 1.00e+00 8.66e-01f  1
 128r 0.0000000e+00 6.15e-02 8.53e+02  -0.9 3.80e-02   4.0 4.58e-01 1.01e-01f  1
 129r 0.0000000e+00 6.15e-02 5.02e+02  -0.9 9.45e-03   4.5 1.00e+00 6.95e-01f  1
iter    objective    inf_pr   inf_du lg(mu)  ||d||  lg(rg) alpha_du alpha_pr  ls
 130r 0.0000000e+00 6.16e-02 3.48e+02  -0.9 3.40e-02   4.0 7.49e-01 2.44e-01f  1
 131r 0.0000000e+00 6.14e-02 3.03e+02  -0.9 1.21e-02   4.4 1.00e+00 1.00e+00f  1
 132r 0.0000000e+00 6.20e-02 4.76e+02  -0.9 3.93e-02   3.9 4.58e-01 2.88e-01f  1
 133r 0.0000000e+00 6.21e-02 5.92e+02  -0.9 1.18e-02   4.3 9.91e-01 2.87e-01f  1
 134r 0.0000000e+00 6.21e-02 2.12e+02  -0.9 1.55e-03   4.8 1.00e+00 1.00e+00f  1
 135r 0.0000000e+00 6.17e-02 1.99e+02  -0.9 3.70e-03   4.3 1.00e+00 6.01e-01f  1
 136r 0.0000000e+00 5.93e-02 1.79e+02  -0.9 8.46e-03   3.8 1.00e+00 8.34e-01f  1
 137r 0.0000000e+00 5.50e-02 2.27e+02  -0.9 1.27e-02   3.3 1.00e+00 4.83e-01f  1
 138r 0.0000000e+00 5.40e-02 1.08e+03  -0.9 5.03e-02   3.8 3.24e-02 2.50e-01f  1
 139r 0.0000000e+00 5.28e-02 8.27e+02  -0.9 1.18e-02   4.2 1.00e+00 1.00e+00f  1
iter    objective    inf_pr   inf_du lg(mu)  ||d||  lg(rg) alpha_du alpha_pr  ls
 140r 0.0000000e+00 4.94e-02 2.77e+02  -0.9 3.96e-03   3.7 1.00e+00 9.89e-01f  1
 141r 0.0000000e+00 4.54e-02 4.09e+02  -0.9 1.14e-02   3.2 9.11e-01 5.63e-01f  1
 142r 0.0000000e+00 4.60e-02 4.72e+02  -0.9 9.80e-01   2.8 5.64e-03 4.21e-03f  1
 143r 0.0000000e+00 4.59e-02 4.71e+02  -0.9 1.15e-01   3.2 2.44e-02 3.90e-02f  1
 144r 0.0000000e+00 4.66e-02 3.56e+02  -0.9 9.29e-03   3.6 1.00e+00 4.55e-01f  1
 145r 0.0000000e+00 4.90e-02 1.61e+03  -0.9 3.45e-02   3.1 2.63e-01 3.38e-01f  1
 146r 0.0000000e+00 4.85e-02 1.55e+02  -0.9 2.36e-03   4.5 1.00e+00 1.00e+00f  1
 147r 0.0000000e+00 5.00e-02 5.93e+02  -0.9 8.71e-03   4.0 1.00e+00 1.00e+00f  1
 148r 0.0000000e+00 4.99e-02 1.90e+02  -0.9 4.04e-03   4.4 1.00e+00 1.00e+00f  1
 149r 0.0000000e+00 5.03e-02 9.11e+02  -0.9 1.62e-02   3.9 1.00e+00 6.14e-01f  1
iter    objective    inf_pr   inf_du lg(mu)  ||d||  lg(rg) alpha_du alpha_pr  ls
 150r 0.0000000e+00 4.30e-02 1.44e+03  -0.9 1.44e-02   3.5 8.37e-01 5.20e-01f  1
 151r 0.0000000e+00 3.71e-02 4.76e+02  -0.9 5.56e-03   3.9 1.00e+00 1.00e+00f  1
 152r 0.0000000e+00 3.88e-02 9.30e+02  -0.9 1.25e-02   3.4 8.92e-01 1.00e+00f  1
 153r 0.0000000e+00 3.98e-02 3.32e+02  -0.9 4.97e-03   3.8 1.00e+00 7.05e-01f  1
 154r 0.0000000e+00 4.29e-02 7.24e+02  -0.9 1.48e-02   3.4 1.00e+00 4.87e-01f  1
 155r 0.0000000e+00 4.36e-02 1.03e+03  -0.9 6.76e-03   3.8 1.00e+00 2.89e-01f  1
 156r 0.0000000e+00 4.47e-02 3.54e+03  -0.9 1.82e-02   3.3 2.65e-01 1.83e-01f  1
 157r 0.0000000e+00 4.50e-02 3.54e+03  -0.9 1.81e+00   2.8 7.22e-03 3.51e-04f  2
 158r 0.0000000e+00 4.52e-02 2.70e+03  -0.9 2.74e-03   4.2 1.00e+00 2.45e-01f  1
 159r 0.0000000e+00 4.84e-02 3.24e+02  -0.9 6.80e-03   3.7 1.00e+00 1.00e+00f  1
iter    objective    inf_pr   inf_du lg(mu)  ||d||  lg(rg) alpha_du alpha_pr  ls
 160r 0.0000000e+00 4.95e-02 7.56e+02  -0.9 2.01e-01    -  4.37e-01 9.52e-02f  1
 161r 0.0000000e+00 4.97e-02 5.59e+02  -0.9 4.63e-03   3.2 1.00e+00 3.00e-01f  1
 162r 0.0000000e+00 5.07e-02 5.71e+03  -0.9 2.60e-01    -  2.31e-01 1.27e-01f  1
 163r 0.0000000e+00 5.09e-02 5.08e+03  -0.9 1.01e-02   3.6 1.00e+00 1.11e-01f  1
 164r 0.0000000e+00 5.29e-02 2.87e+03  -0.9 7.04e-02   3.2 2.13e-02 1.33e-01h  2
 165r 0.0000000e+00 5.30e-02 2.39e+03  -0.9 7.13e-03   3.6 5.34e-01 1.83e-01f  1
 166r 0.0000000e+00 5.29e-02 2.32e+03  -0.9 4.67e-02   3.1 1.04e-01 2.59e-02f  1
 167r 0.0000000e+00 5.29e-02 2.22e+03  -0.9 3.56e-02   3.5 1.51e-01 4.37e-02f  1
 168r 0.0000000e+00 5.30e-02 1.61e+03  -0.9 6.83e-03   4.0 1.00e+00 2.85e-01f  1
 169r 0.0000000e+00 5.27e-02 6.20e+02  -0.9 6.38e-03   3.5 1.00e+00 1.00e+00h  1
iter    objective    inf_pr   inf_du lg(mu)  ||d||  lg(rg) alpha_du alpha_pr  ls
 170r 0.0000000e+00 5.16e-02 3.81e+02  -0.9 1.99e-02   3.0 4.06e-01 2.06e-01f  1
 171r 0.0000000e+00 5.16e-02 2.58e+02  -0.9 1.70e-03   4.3 1.00e+00 3.44e-01f  1
 172r 0.0000000e+00 5.12e-02 1.17e+02  -0.9 2.29e-03   3.9 1.00e+00 1.00e+00f  1
 173r 0.0000000e+00 5.04e-02 1.34e+02  -0.9 3.58e-03   3.4 1.00e+00 1.00e+00f  1
 174r 0.0000000e+00 4.92e-02 2.80e+02  -0.9 4.94e-03   2.9 1.00e+00 1.00e+00f  1
 175r 0.0000000e+00 7.15e-02 1.46e+03  -0.9 9.76e-03   2.4 1.00e+00 1.00e+00f  1
 176r 0.0000000e+00 4.20e-02 9.33e+02  -0.9 1.02e-02   1.9 1.00e+00 1.00e+00f  1
 177r 0.0000000e+00 3.73e-02 1.67e+02  -0.9 4.88e-03   2.4 1.00e+00 1.00e+00f  1
 178r 0.0000000e+00 3.48e-02 1.22e+02  -0.9 2.61e-03   3.7 1.00e+00 1.00e+00f  1
 179r 0.0000000e+00 3.33e-02 6.02e+01  -0.9 1.35e-03   4.1 1.00e+00 1.00e+00f  1
iter    objective    inf_pr   inf_du lg(mu)  ||d||  lg(rg) alpha_du alpha_pr  ls
 180r 0.0000000e+00 3.26e-02 2.26e+01  -0.9 6.32e-04   4.6 1.00e+00 1.00e+00f  1
 181r 0.0000000e+00 3.02e-02 6.95e+02  -0.9 4.06e-03   4.1 1.00e+00 1.00e+00f  1
 182r 0.0000000e+00 2.60e-02 7.55e+02  -0.9 3.19e-03   4.5 1.00e+00 1.00e+00f  1
 183r 0.0000000e+00 1.83e-02 1.65e+02  -0.9 6.84e-03   4.0 1.00e+00 1.00e+00f  1
 184r 0.0000000e+00 3.05e-03 1.27e+03  -0.9 1.56e-02   3.5 1.00e+00 1.00e+00f  1
 185r 0.0000000e+00 3.23e-03 1.83e+03  -0.9 2.05e-02   3.1 6.27e-01 1.43e-01f  1
 186r 0.0000000e+00 4.39e-03 2.99e+03  -0.9 3.60e-03   3.5 1.00e+00 1.00e+00f  1
 187r 0.0000000e+00 5.03e-03 4.91e+03  -0.9 1.51e-02   3.0 1.00e+00 4.13e-01f  1
 188r 0.0000000e+00 5.18e-03 2.74e+03  -0.9 8.64e-03   3.4 1.00e+00 3.00e-01f  1
 189r 0.0000000e+00 6.31e-03 3.96e+03  -0.9 3.44e-02   3.0 3.41e-01 2.86e-01f  1
iter    objective    inf_pr   inf_du lg(mu)  ||d||  lg(rg) alpha_du alpha_pr  ls
 190r 0.0000000e+00 6.81e-03 2.24e+03  -0.9 1.62e-02   2.5 7.06e-01 2.47e-01f  1
 191r 0.0000000e+00 5.81e-03 1.12e+03  -0.9 1.03e-02   2.0 1.00e+00 4.15e-01f  1
 192r 0.0000000e+00 4.54e-03 3.16e+02  -0.9 3.83e-03   2.4 1.00e+00 7.66e-01f  1
 193r 0.0000000e+00 2.91e-03 1.15e+02  -0.9 1.06e-02   2.0 1.00e+00 1.00e+00f  1
 194r 0.0000000e+00 1.68e-03 2.72e+01  -0.9 3.95e-03   2.4 1.00e+00 1.00e+00f  1
 195r 0.0000000e+00 2.15e-03 1.33e+02  -0.9 1.95e-02   1.9 1.00e+00 6.47e-01f  1
 196r 0.0000000e+00 4.92e-03 4.50e+02  -0.9 4.68e-02   1.4 1.00e+00 3.47e-01f  1
 197r 0.0000000e+00 1.01e-02 2.21e+03  -0.9 1.25e-01   1.0 1.00e+00 1.00e+00f  1
 198r 0.0000000e+00 9.97e-03 1.07e+03  -0.9 8.29e-03   3.2 1.00e+00 5.90e-01f  1
 199r 0.0000000e+00 8.28e-03 2.33e+02  -0.9 5.35e-03   2.7 1.00e+00 1.00e+00f  1
iter    objective    inf_pr   inf_du lg(mu)  ||d||  lg(rg) alpha_du alpha_pr  ls
 200r 0.0000000e+00 2.36e-03 1.42e+02  -0.9 5.73e-03   2.2 1.00e+00 1.00e+00f  1
 201r 0.0000000e+00 4.18e-02 1.70e+03  -0.9 2.90e-02   1.8 1.00e+00 1.00e+00f  1
 202r 0.0000000e+00 2.90e-02 9.68e+02  -0.9 2.85e-02   3.1 4.36e-01 3.84e-01f  2
 203r 0.0000000e+00 1.04e-02 4.85e+02  -0.9 6.77e-03   3.5 1.00e+00 6.39e-01h  1
 204r 0.0000000e+00 2.86e-03 3.57e+02  -0.9 5.44e-03   3.0 1.00e+00 1.00e+00f  1
 205r 0.0000000e+00 2.35e-03 4.99e+02  -0.9 8.39e-03   2.6 1.00e+00 1.00e+00f  1
 206r 0.0000000e+00 2.98e-03 1.12e+03  -0.9 9.94e-03   2.1 1.00e+00 1.00e+00f  1
 207r 0.0000000e+00 1.19e-02 1.74e+04  -0.9 2.92e-02   1.6 9.62e-01 5.36e-01f  1
 208r 0.0000000e+00 9.97e-03 1.51e+04  -0.9 7.91e-02    -  1.79e-01 5.76e-02h  1
 209r 0.0000000e+00 8.47e-03 1.30e+04  -0.9 1.24e-02   2.0 1.00e+00 1.35e-01f  1
iter    objective    inf_pr   inf_du lg(mu)  ||d||  lg(rg) alpha_du alpha_pr  ls
 210r 0.0000000e+00 8.18e-03 1.28e+04  -0.9 3.09e-01    -  5.10e-02 1.03e-02f  4
 211r 0.0000000e+00 5.04e-03 8.26e+03  -0.9 7.25e-03   2.5 1.00e+00 3.75e-01f  1
 212r 0.0000000e+00 9.97e-04 1.06e+03  -0.9 1.06e-02   2.0 1.00e+00 1.00e+00f  1
 213r 0.0000000e+00 6.60e-03 1.81e+03  -0.9 2.66e-02   1.5 1.00e+00 1.00e+00f  1
 214r 0.0000000e+00 5.32e-02 1.62e+04  -0.9 4.98e-02   1.0 1.00e+00 9.56e-01f  1
 215r 0.0000000e+00 7.40e-03 1.13e+03  -0.9 6.04e-03   4.2 1.00e+00 1.00e+00h  1
 216r 0.0000000e+00 2.62e-04 1.65e+02  -0.9 5.03e-04   5.5 1.00e+00 1.00e+00f  1
 217r 0.0000000e+00 2.16e-04 4.48e+01  -0.9 3.43e-04   5.0 1.00e+00 1.00e+00f  1
 218r 0.0000000e+00 1.59e-04 2.17e+01  -0.9 6.29e-04   4.5 1.00e+00 1.00e+00f  1
 219r 0.0000000e+00 1.12e-04 2.80e+01  -0.9 1.08e-03   4.1 1.00e+00 1.00e+00f  1
iter    objective    inf_pr   inf_du lg(mu)  ||d||  lg(rg) alpha_du alpha_pr  ls
 220r 0.0000000e+00 2.86e-04 2.69e+01  -0.9 1.27e-03   3.6 1.00e+00 1.00e+00f  1
 221r 0.0000000e+00 6.22e-05 1.21e+01  -0.9 1.58e-03   3.1 1.00e+00 1.00e+00f  1
 222r 0.0000000e+00 1.00e-04 1.13e+01  -0.9 1.40e-03   2.6 1.00e+00 1.00e+00f  1
 223r 0.0000000e+00 3.51e-04 1.33e+01  -0.9 2.22e-03   2.1 1.00e+00 1.00e+00f  1
 224r 0.0000000e+00 2.87e-03 1.12e+01  -0.9 3.54e-03   1.7 1.00e+00 1.00e+00f  1
 225r 0.0000000e+00 5.56e-01 7.24e+02  -0.9 2.54e-01   1.2 1.00e+00 6.25e-02f  5
 226r 0.0000000e+00 5.66e-01 1.01e+03  -0.9 7.47e+00   0.7 2.42e-02 3.40e-03f  3
 227r 0.0000000e+00 5.65e-01 9.72e+02  -0.9 4.70e-01   1.1 6.72e-02 5.34e-03h  7
 228r 0.0000000e+00 5.59e-01 3.61e+02  -0.9 1.93e-02   1.6 1.00e+00 1.17e-02h  1
 229r 0.0000000e+00 5.19e-01 5.22e+02  -0.9 6.28e-02   1.1 1.00e+00 1.25e-01f  4
iter    objective    inf_pr   inf_du lg(mu)  ||d||  lg(rg) alpha_du alpha_pr  ls
 230r 0.0000000e+00 2.15e-01 3.81e+02  -0.9 9.84e-03   1.5 1.00e+00 1.00e+00h  1
 231r 0.0000000e+00 2.15e-01 9.44e+02  -0.9 9.56e-02   3.8 6.64e-01 1.10e-02h  7
 232r 0.0000000e+00 2.18e-01 4.92e+02  -0.9 6.14e-02   4.2 1.00e+00 3.34e-02h  3
 233r 0.0000000e+00 2.22e-01 4.33e+02  -0.9 2.97e-02   3.7 1.00e+00 1.25e-01h  4
 234r 0.0000000e+00 2.22e-01 8.49e+02  -0.9 8.19e-02   3.2 1.73e-01 1.43e-02h  6
 235r 0.0000000e+00 2.22e-01 8.12e+02  -0.9 9.49e-02   4.6 3.30e-03 1.01e-02h  6
 236r 0.0000000e+00 2.17e-01 1.15e+03  -0.9 2.12e-02   5.9 1.27e-01 2.36e-02h  1
 237r 0.0000000e+00 2.13e-01 1.25e+03  -0.9 2.92e-02   5.4 9.91e-03 1.45e-02h  1
 238r 0.0000000e+00 1.87e-01 1.39e+03  -0.9 4.77e-02   4.9 6.92e-02 1.24e-01h  3
 239r 0.0000000e+00 1.79e-01 9.27e+02  -0.9 3.11e-02   4.4 2.11e-01 4.38e-02h  3
iter    objective    inf_pr   inf_du lg(mu)  ||d||  lg(rg) alpha_du alpha_pr  ls
 240r 0.0000000e+00 1.73e-01 6.97e+02  -0.9 3.59e-02   4.0 1.80e-01 3.14e-02h  5
 241r 0.0000000e+00 5.86e-02 5.87e+02  -0.9 2.45e-02   3.5 1.00e+00 7.58e-01h  1
 242r 0.0000000e+00 1.88e-02 2.71e+03  -0.9 2.85e-02   3.0 1.00e+00 6.69e-01f  1
 243r 0.0000000e+00 1.62e-02 2.32e+03  -0.9 4.36e-02   2.5 1.00e+00 1.38e-01f  1
 244r 0.0000000e+00 9.26e-03 1.77e+03  -0.9 5.92e-03   3.0 1.00e+00 1.00e+00f  1
 245r 0.0000000e+00 4.67e-03 2.07e+03  -0.9 4.84e-03   2.5 1.00e+00 1.00e+00f  1
 246r 0.0000000e+00 8.95e-04 5.73e+02  -0.9 4.20e-03   2.0 1.00e+00 1.00e+00f  1
 247r 0.0000000e+00 6.92e-03 4.21e+02  -0.9 6.60e-03   1.5 1.00e+00 1.00e+00f  1
 248r 0.0000000e+00 3.14e-03 1.41e+02  -0.9 9.44e-03    -  1.00e+00 1.00e+00h  1
 249r 0.0000000e+00 1.78e-04 8.42e+00  -0.9 9.27e-04    -  1.00e+00 1.00e+00h  1
iter    objective    inf_pr   inf_du lg(mu)  ||d||  lg(rg) alpha_du alpha_pr  ls
 250r 0.0000000e+00 2.02e-04 7.60e+00  -1.6 4.85e-03    -  1.00e+00 1.00e+00f  1
 251r 0.0000000e+00 2.12e-04 2.34e+01  -1.6 2.47e-03    -  1.00e+00 1.00e+00h  1
 252r 0.0000000e+00 9.20e-05 1.32e+00  -1.6 6.82e-04    -  1.00e+00 1.00e+00h  1
 253r 0.0000000e+00 2.38e-05 9.32e+00  -2.4 8.66e-04    -  1.00e+00 9.65e-01f  1
 254r 0.0000000e+00 5.60e-05 5.91e+01  -2.4 2.00e-03    -  8.68e-01 1.00e+00f  1
 255r 0.0000000e+00 2.15e-04 2.86e+00  -2.4 6.26e-04    -  1.00e+00 1.00e+00f  1
 256r 0.0000000e+00 7.17e-05 3.82e-01  -2.4 4.28e-04    -  1.00e+00 1.00e+00f  1
 257r 0.0000000e+00 4.81e-05 1.11e-02  -2.4 6.50e-05    -  1.00e+00 1.00e+00h  1
 258r 0.0000000e+00 1.14e-04 1.25e+02  -5.3 2.64e-03    -  4.12e-01 8.61e-01f  1
 259r 0.0000000e+00 2.94e-04 1.24e+02  -5.3 2.13e-02    -  1.46e-02 2.58e-02f  1
iter    objective    inf_pr   inf_du lg(mu)  ||d||  lg(rg) alpha_du alpha_pr  ls
 260r 0.0000000e+00 1.23e-03 1.28e+02  -5.3 1.94e-03   2.9 1.55e-01 4.84e-01f  1
 261r 0.0000000e+00 1.45e-03 6.42e+01  -5.3 1.94e-03   3.3 4.77e-01 4.15e-01f  1
 262r 0.0000000e+00 1.89e-03 6.03e+01  -5.3 1.43e-02   2.8 6.32e-02 5.52e-02f  1
 263r 0.0000000e+00 2.12e-03 4.84e+01  -5.3 1.65e-03   3.2 1.97e-01 1.97e-01f  1
 264r 0.0000000e+00 2.08e-03 5.66e+01  -5.3 6.81e-04   3.7 1.73e-01 6.27e-01f  1
 265r 0.0000000e+00 2.43e-03 3.56e+01  -5.3 1.70e-03   3.2 3.94e-01 2.87e-01f  1
 266r 0.0000000e+00 2.73e-03 3.35e+01  -5.3 1.02e-02   2.7 1.11e-01 5.30e-02f  1
 267r 0.0000000e+00 3.44e-03 2.02e+01  -5.3 1.38e-03   3.1 2.45e-01 5.43e-01f  1
 268r 0.0000000e+00 4.88e-03 2.22e+01  -5.3 7.23e-03   2.7 4.91e-01 1.97e-01f  1
 269r 0.0000000e+00 5.37e-03 1.69e+01  -5.3 1.84e-03   3.1 3.91e-01 2.66e-01f  1
iter    objective    inf_pr   inf_du lg(mu)  ||d||  lg(rg) alpha_du alpha_pr  ls
 270r 0.0000000e+00 5.81e-03 2.10e+01  -5.3 5.38e-03   2.6 1.84e-01 8.30e-02f  1
 271r 0.0000000e+00 6.01e-03 1.87e+01  -5.3 9.66e-04   3.0 3.51e-01 2.04e-01f  1
 272r 0.0000000e+00 6.82e-03 1.52e+01  -5.3 1.32e-02   2.6 3.60e-02 7.40e-02f  1
 273r 0.0000000e+00 6.75e-03 2.07e+01  -5.3 8.89e-04   3.0 4.44e-01 9.88e-02f  1
 274r 0.0000000e+00 6.68e-03 1.88e+01  -5.3 1.91e-02   2.5 7.32e-03 2.54e-02f  1
 275r 0.0000000e+00 6.56e-03 1.88e+01  -5.3 1.19e-03   2.9 5.91e-01 2.85e-01f  1
 276r 0.0000000e+00 6.43e-03 1.81e+01  -5.3 5.78e-03   2.5 5.28e-02 4.91e-02f  1
 277r 0.0000000e+00 6.25e-03 2.96e+01  -5.3 2.20e-01   2.0 5.77e-03 1.61e-03f  1
 278r 0.0000000e+00 5.94e-03 2.34e+01  -5.3 5.47e-03   2.4 6.78e-02 1.10e-01f  1
 279r 0.0000000e+00 5.84e-03 6.23e+01  -5.3 2.47e-02   1.9 7.58e-02 7.91e-03f  1
iter    objective    inf_pr   inf_du lg(mu)  ||d||  lg(rg) alpha_du alpha_pr  ls
 280r 0.0000000e+00 5.31e-03 6.37e+01  -5.3 6.46e-03   2.4 4.10e-01 1.81e-01f  1
 281r 0.0000000e+00 4.97e-03 3.95e+01  -5.3 1.68e-03   2.8 5.31e-01 3.17e-01f  1
 282r 0.0000000e+00 4.81e-03 4.29e+01  -5.3 8.36e-03   2.3 6.35e-02 2.66e-02f  1
 283r 0.0000000e+00 4.80e-03 2.17e+01  -5.3 2.08e-03   2.7 1.00e+00 5.78e-01f  1
 284r 0.0000000e+00 6.43e-03 8.06e+00  -5.3 1.17e-02   2.3 3.97e-02 1.40e-01f  1
 285r 0.0000000e+00 7.45e-03 2.80e+01  -5.3 4.24e-03   2.7 1.61e-02 4.00e-01f  1
 286r 0.0000000e+00 7.53e-03 1.31e+01  -5.3 2.55e-03   3.1 3.82e-01 2.23e-01f  1
 287r 0.0000000e+00 7.65e-03 1.28e+01  -5.3 9.31e-04   3.5 1.62e-01 3.42e-01f  1
 288r 0.0000000e+00 7.98e-03 1.74e+01  -5.3 1.70e-03   3.1 5.17e-02 2.08e-01f  1
 289r 0.0000000e+00 8.05e-03 2.52e+00  -5.3 6.31e-04   3.5 6.26e-01 1.83e-01f  1
iter    objective    inf_pr   inf_du lg(mu)  ||d||  lg(rg) alpha_du alpha_pr  ls
 290r 0.0000000e+00 8.78e-03 6.33e+00  -5.3 2.26e-03   3.0 1.63e-01 3.90e-01h  1
 291r 0.0000000e+00 8.78e-03 1.20e+01  -5.3 6.86e-04   3.4 8.13e-01 4.75e-02f  1
 292r 0.0000000e+00 9.49e-03 7.09e+00  -5.3 2.80e-03   2.9 8.36e-02 2.82e-01f  1
 293r 0.0000000e+00 9.51e-03 1.99e+01  -5.3 6.58e-04   3.4 1.00e+00 1.07e-01f  1
 294r 0.0000000e+00 8.12e-03 9.28e+00  -5.3 1.89e-03   2.9 9.77e-02 9.06e-01f  1
 295r 0.0000000e+00 7.48e-03 4.90e+00  -5.3 1.52e-02   2.4 1.37e-01 4.64e-02f  1
 296r 0.0000000e+00 7.26e-03 7.45e+00  -5.3 2.54e-03   2.8 2.03e-01 1.02e-01f  1
 297r 0.0000000e+00 7.24e-03 1.03e+01  -5.3 9.20e-01   2.4 2.22e-03 2.71e-04f  1
 298r 0.0000000e+00 6.85e-03 2.20e+01  -5.3 3.12e-03   2.8 5.86e-01 1.42e-01f  1
 299r 0.0000000e+00 6.73e-03 2.51e+01  -5.3 1.14e-03   3.2 1.00e+00 1.08e-01f  1
iter    objective    inf_pr   inf_du lg(mu)  ||d||  lg(rg) alpha_du alpha_pr  ls
 300r 0.0000000e+00 6.19e-03 2.86e+01  -5.3 3.40e-03   2.7 5.63e-01 1.59e-01f  1
 301r 0.0000000e+00 6.01e-03 2.20e+01  -5.3 1.23e-03   3.2 5.84e-01 1.46e-01f  1
 302r 0.0000000e+00 6.75e-03 9.78e+00  -5.3 3.89e-03   2.7 1.32e-01 6.97e-01f  1
 303r 0.0000000e+00 7.84e-03 5.65e+00  -5.3 1.97e-03   3.1 1.00e+00 5.53e-01f  1
 304r 0.0000000e+00 8.23e-03 5.56e+00  -5.3 8.78e-03   2.6 4.94e-02 4.53e-02f  1
 305r 0.0000000e+00 8.68e-03 1.50e+01  -5.3 2.41e-03   3.1 1.00e+00 1.89e-01f  1
 306r 0.0000000e+00 9.13e-03 1.43e+01  -5.3 6.14e-02   2.6 1.88e-02 2.35e-02f  1
 307r 0.0000000e+00 1.00e-02 1.68e+01  -5.3 2.89e-02   2.1 7.66e-02 3.23e-02f  1
 308r 0.0000000e+00 1.01e-02 1.36e+01  -5.3 5.56e-03    -  2.26e-01 1.70e-01f  1
 309r 0.0000000e+00 1.01e-02 1.44e+01  -5.3 1.02e-01   2.5 4.50e-02 1.10e-02f  1
iter    objective    inf_pr   inf_du lg(mu)  ||d||  lg(rg) alpha_du alpha_pr  ls
 310r 0.0000000e+00 1.02e-02 2.12e+01  -5.3 1.48e-03   3.0 1.00e+00 3.40e-01f  1
 311r 0.0000000e+00 1.03e-02 1.73e+01  -5.3 3.53e-03    -  1.55e-01 2.16e-01f  1
 312r 0.0000000e+00 1.02e-02 1.52e+01  -5.3 9.10e-04   2.5 1.15e-01 1.21e-01f  1
 313r 0.0000000e+00 1.02e-02 1.48e+01  -5.3 1.98e-03    -  3.59e-02 2.87e-03f  1
 314r 0.0000000e+00 1.02e-02 7.28e+00  -5.3 3.37e-04   2.0 1.00e+00 6.21e-01f  1
 315r 0.0000000e+00 9.53e-03 4.54e+00  -5.3 1.57e-03   1.5 9.84e-02 4.87e-01f  1
 316r 0.0000000e+00 7.71e-03 3.15e+00  -5.3 2.29e-02   1.1 9.27e-02 7.84e-02f  1
 317r 0.0000000e+00 6.67e-03 2.93e+00  -5.3 1.70e-03   2.4 7.76e-01 1.00e+00h  1
 318r 0.0000000e+00 6.66e-03 1.28e+01  -5.3 7.75e-03   2.8 3.20e-01 1.67e-02h  1
 319r 0.0000000e+00 6.44e-03 5.46e+00  -5.3 5.12e-04   3.2 4.10e-01 1.00e+00f  1
iter    objective    inf_pr   inf_du lg(mu)  ||d||  lg(rg) alpha_du alpha_pr  ls
 320r 0.0000000e+00 6.34e-03 2.23e+01  -5.3 1.96e-02   2.8 2.71e-01 6.35e-02f  1
 321r 0.0000000e+00 6.09e-03 7.61e+00  -5.3 2.50e-03   2.3 1.00e+00 7.53e-01f  1
 322r 0.0000000e+00 7.63e-03 2.40e+01  -5.3 4.75e-03   1.8 8.51e-01 3.27e-01f  1
 323r 0.0000000e+00 1.03e-02 2.03e+01  -5.3 1.77e-01   1.3 9.45e-03 1.65e-02f  1
 324r 0.0000000e+00 1.03e-02 2.99e+01  -5.3 5.76e-03    -  5.96e-01 2.73e-03h  1
 325r 0.0000000e+00 1.06e-02 2.39e+01  -5.3 1.65e-03    -  1.00e+00 2.51e-01f  1
 326r 0.0000000e+00 1.06e-02 2.24e+01  -5.3 7.58e-04    -  2.94e-01 9.48e-02h  1
 327r 0.0000000e+00 1.09e-02 4.15e+00  -5.3 1.77e-03    -  1.00e+00 8.18e-01f  1
 328r 0.0000000e+00 1.09e-02 8.25e-01  -5.3 5.13e-04    -  7.88e-01 1.00e+00h  1
 329r 0.0000000e+00 1.09e-02 1.11e-03  -5.3 2.04e-05    -  1.00e+00 1.00e+00h  1
iter    objective    inf_pr   inf_du lg(mu)  ||d||  lg(rg) alpha_du alpha_pr  ls
 330r 0.0000000e+00 1.09e-02 1.33e-09  -5.3 3.30e-08    -  1.00e+00 1.00e+00h  1
 331r 0.0000000e+00 1.10e-02 3.74e-03  -8.0 5.73e-05    -  9.71e-01 9.78e-01f  1
 332r 0.0000000e+00 1.10e-02 1.80e-04  -8.0 1.18e-05    -  1.00e+00 1.00e+00f  1

Number of Iterations....: 332

                                   (scaled)                 (unscaled)
Objective...............:   0.0000000000000000e+00    0.0000000000000000e+00
Dual infeasibility......:   9.3929800755176984e-06    9.3929800755176984e-06
Constraint violation....:   1.0959109875370228e-02    1.0959109875370228e-02
Complementarity.........:   0.0000000000000000e+00    0.0000000000000000e+00
Overall NLP error.......:   1.0959109875370228e-02    1.0959109875370228e-02


Number of objective function evaluations             = 487
Number of objective gradient evaluations             = 11
Number of equality constraint evaluations            = 498
Number of inequality constraint evaluations          = 0
Number of equality constraint Jacobian evaluations   = 335
Number of inequality constraint Jacobian evaluations = 0
Number of Lagrangian Hessian evaluations             = 333
Total CPU secs in IPOPT (w/o function evaluations)   =     48.640
Total CPU secs in NLP function evaluations           =      6.823

EXIT: Converged to a point of local infeasibility. Problem may be infeasible.

************************ CUTEst statistics ************************


 Package used            :  IPOPT
 Problem                 :  DRCAVTY3  
 # variables             =            4489
 # constraints           =            3969
 # objective functions   =        0.4990000E+03
 # objective gradients   =        0.1200000E+02
 # objective Hessians    =        0.3330000E+03
 # Hessian-vector prdct  =        0.0000000E+00
 # constraints functions =        0.8350000E+03
 # constraints gradients =        0.3370000E+03
 # constraints Hessians  =        0.3330000E+03
 Exit code               =               2
 Final f                 =   0.0000000E+00
 Set up time             =            0.19 seconds
 Solve time              =          149.40 seconds


******************************************************************

System Time =      37.4490013123 s.
